unsat
((set-logic NIA)
(declare-fun n!0 () Int)
(declare-fun k!2 () Int)
(declare-fun m!1 () Int)
(declare-fun c!3 () Int)
(proof
(let ((?x734 (* n!0 n!0)))
 (let ((?x313 (* 3 ?x734)))
 (let ((?x147 (* (- 1) k!2)))
 (let ((?x239 (+ (* 3 n!0) ?x147 ?x313)))
 (let (($x617 (<= ?x239 0)))
 (let (($x467 (= ?x239 0)))
 (let ((?x651 (* k!2 m!1 m!1)))
 (let ((?x645 (* c!3 k!2 m!1)))
 (let ((?x382 (* c!3 m!1 m!1)))
 (let ((?x130 (* k!2 k!2 m!1)))
 (let ((?x580 (+ ?x130 (* (- 18) (* n!0 n!0 c!3 k!2)) (* 2 (* n!0 c!3 k!2 m!1)) (* (- 6) (* n!0 n!0 n!0 c!3 m!1)) (* (- 18) (* n!0 n!0 c!3 m!1)) (* (- 18) (* n!0 k!2 m!1)) (* (- 18) (* n!0 n!0 k!2 k!2)) (* n!0 n!0 c!3 k!2 m!1) (* (- 6) (* n!0 n!0 n!0 k!2 k!2)) (* (- 18) (* n!0 c!3 m!1)) (* 2 (* n!0 c!3 m!1 m!1)) (* n!0 n!0 c!3 m!1 m!1) (* 2 (* n!0 k!2 k!2 m!1)) (* n!0 n!0 k!2 k!2 m!1) (* (- 18) (* n!0 n!0 k!2 m!1)) (* n!0 n!0 k!2 m!1 m!1) (* (- 6) (* c!3 m!1)) ?x382 (* (- 6) (* n!0 n!0 n!0 k!2 m!1)) (* (- 6) (* c!3 k!2)) (* (- 18) (* n!0 c!3 k!2)) (* (- 6) (* n!0 n!0 n!0 c!3 k!2)) (* 2 (* n!0 k!2 m!1 m!1)) ?x645 ?x651 (* (- 18) (* n!0 k!2 k!2)) (* (- 6) (* k!2 m!1)) (* (- 6) (* k!2 k!2)))))
 (let ((?x452 (* (- 1) m!1)))
 (let ((?x524 (+ (* 6 n!0) ?x452)))
 (let (($x393 (= ?x524 (- 6))))
 (let (($x549 (not $x393)))
 (let ((?x783 (* k!2 k!2)))
 (let ((?x775 (* m!1 m!1)))
 (let ((?x376 (* n!0 c!3)))
 (let ((?x497 (* (- 9) ?x376)))
 (let ((?x194 (* 9 n!0)))
 (let ((?x289 (+ ?x194 (* (- 9) (* n!0 k!2)) (* (- 27) c!3) ?x497 (* (- 32) k!2) (* (- 5) m!1) (* 2 (* k!2 m!1)) ?x775 ?x783)))
 (let ((?x277 (* (- 3) k!2)))
 (let ((?x502 (* (- 3) c!3)))
 (let ((?x126 (* n!0 k!2)))
 (let ((?x493 (* 2 n!0)))
 (let ((?x297 (+ ?x493 ?x126 ?x502 (* n!0 m!1) ?x277)))
 (let (($x162 (or (not (= ?x297 (- 2))) (not (= (+ ?x194 ?x147 ?x452 ?x313) (- 6))) (not (= ?x289 (- 13))) $x549 (not (= ?x580 0)))))
 (let ((?x148 (+ ?x493 ?x126 ?x502 ?x147)))
 (let (($x482 (= ?x148 0)))
 (let ((?x116 (* (- 5) k!2)))
 (let ((?x496 (* (- 18) c!3)))
 (let ((?x488 (+ ?x194 ?x496 ?x497 ?x116 ?x783)))
 (let (($x233 (= ?x488 (- 4))))
 (let (($x230 (and $x393 $x233 $x482 $x467 $x162)))
 (let ((?x360 (+ (* 6 ?x783) (* 6 (* c!3 m!1 n!0 n!0 n!0)) (* 6 (* c!3 k!2 n!0 n!0 n!0)) (* (- 1) ?x130) (* 18 (* k!2 k!2 n!0)) (* (- 2) (* k!2 m!1 m!1 n!0)) (* 18 (* k!2 m!1 n!0 n!0)) (* (- 1) (* k!2 m!1 m!1 n!0 n!0)) (* 18 (* c!3 m!1 n!0)) (* (- 2) (* c!3 m!1 m!1 n!0)) (* (- 1) (* c!3 m!1 m!1 n!0 n!0)) (* (- 2) (* k!2 k!2 m!1 n!0)) (* (- 1) (* k!2 k!2 m!1 n!0 n!0)) (* (- 1) ?x651) (* (- 1) ?x645) (* (- 2) (* c!3 k!2 m!1 n!0)) (* 18 (* c!3 k!2 n!0 n!0)) (* 18 (* c!3 k!2 n!0)) (* 18 (* c!3 m!1 n!0 n!0)) (* 18 (* k!2 m!1 n!0)) (* 6 (* k!2 m!1)) (* 6 (* c!3 m!1)) (* 18 (* k!2 k!2 n!0 n!0)) (* (- 1) (* c!3 k!2 m!1 n!0 n!0)) (* 6 (* c!3 k!2)) (* (- 1) ?x382) (* 6 (* k!2 k!2 n!0 n!0 n!0)) (* 6 (* k!2 m!1 n!0 n!0 n!0)))))
 (let ((?x200 (* k!2 n!0)))
 (let ((?x340 (* (- 1) ?x200)))
 (let ((?x627 (* (- 2) n!0)))
 (let ((?x343 (* 3 c!3)))
 (let (($x499 (= (+ ?x343 (* 3 k!2) ?x627 ?x340 (* (- 1) (* m!1 n!0))) 2)))
 (let ((?x594 (* 9 (* c!3 n!0))))
 (let ((?x784 (* (- 1) ?x783)))
 (let ((?x782 (* (- 9) n!0)))
 (let ((?x777 (+ (* 27 c!3) (* 32 k!2) (* 5 m!1) ?x782 ?x784 (* 9 ?x200) ?x594 (* (- 2) (* k!2 m!1)) (* (- 1) ?x775))))
 (let (($x515 (or (not (= (+ m!1 (* (- 6) n!0)) 6)) (not (= (+ k!2 m!1 ?x782 (* (- 3) ?x734)) 6)) (not (= ?x777 13)) (not $x499) (not (= ?x360 0)))))
 (let (($x480 (= (+ m!1 (* (- 6) n!0)) 6)))
 (let (($x509 (and $x480 (= (+ (* 18 c!3) (* 5 k!2) ?x782 ?x784 ?x594) 4) (= (+ ?x343 k!2 ?x627 ?x340) 0) (= (+ k!2 (* (- 3) n!0) (* (- 3) ?x734)) 0) $x515)))
 (let (($x406 (exists ((c Int) (k Int) (m Int) (n Int) )(! (let ((?x765 (+ (* 6 (* k k)) (* 6 (* c m n n n)) (* 6 (* c k n n n)) (* (- 1) (* k k m)) (* 18 (* k k n)) (* (- 2) (* k m m n)) (* 18 (* k m n n)) (* (- 1) (* k m m n n)) (* 18 (* c m n)) (* (- 2) (* c m m n)) (* (- 1) (* c m m n n)) (* (- 2) (* k k m n)) (* (- 1) (* k k m n n)) (* (- 1) (* k m m)) (* (- 1) (* c k m)) (* (- 2) (* c k m n)) (* 18 (* c k n n)) (* 18 (* c k n)) (* 18 (* c m n n)) (* 18 (* k m n)) (* 6 (* k m)) (* 6 (* c m)) (* 18 (* k k n n)) (* (- 1) (* c k m n n)) (* 6 (* c k)) (* (- 1) (* c m m)) (* 6 (* k k n n n)) (* 6 (* k m n n n)))))
 (let ((?x52 (* k n)))
 (let ((?x258 (* (- 1) ?x52)))
 (let ((?x257 (* (- 2) n)))
 (let ((?x255 (* 3 c)))
 (let (($x565 (= (+ ?x255 (* 3 k) ?x257 ?x258 (* (- 1) (* m n))) 2)))
 (let (($x573 (not $x565)))
 (let ((?x155 (* 9 (* c n))))
 (let ((?x46 (* k k)))
 (let ((?x218 (* (- 1) ?x46)))
 (let ((?x217 (* (- 9) n)))
 (let ((?x455 (* 5 m)))
 (let ((?x543 (+ (* 27 c) (* 32 k) ?x455 ?x217 ?x218 (* 9 ?x52) ?x155 (* (- 2) (* k m)) (* (- 1) (* m m)))))
 (let (($x547 (not (= ?x543 13))))
 (let (($x138 (= (+ m (* (- 6) n)) 6)))
 (let (($x356 (not $x138)))
 (let (($x785 (or $x356 (not (= (+ k m ?x217 (* (- 3) (* n n))) 6)) $x547 $x573 (not (= ?x765 0)))))
 (let (($x296 (= (+ k (* (- 3) n) (* (- 3) (* n n))) 0)))
 (let (($x260 (= (+ ?x255 k ?x257 ?x258) 0)))
 (let (($x215 (= (+ (* 18 c) (* 5 k) ?x217 ?x218 ?x155) 4)))
 (and $x138 $x215 $x260 $x296 $x785))))))))))))))))))))) :qid k!38))
 ))
 (let (($x302 (exists ((c Int) (k Int) (m Int) (n Int) )(! (let ((?x217 (* (- 9) n)))
 (let ((?x455 (* 5 m)))
 (let ((?x37 (* 18 c)))
 (let ((?x443 (+ ?x37 (* 23 k) (* 9 (* (+ 1 n) (+ c k))) ?x455 ?x217 (* (- 1) (* (+ k m) (+ k m))))))
 (let ((?x71 (+ c k)))
 (let ((?x74 (+ k m)))
 (let ((?x657 (+ 1 n)))
 (let (($x459 (not (= (* ?x657 ?x657 ?x74 ?x71 (+ (- 6) m (* (- 6) n))) 0))))
 (let (($x138 (= (+ m (* (- 6) n)) 6)))
 (let (($x356 (not $x138)))
 (let ((?x257 (* (- 2) n)))
 (let ((?x255 (* 3 c)))
 (let (($x321 (= (+ ?x255 (* 4 k) (* (- 1) (* ?x657 ?x74)) m ?x257) 2)))
 (let ((?x61 (* 3 n)))
 (let ((?x240 (* (- 1) m)))
 (let ((?x639 (* (- 1) k)))
 (let (($x268 (not (= (+ (* 3 (* ?x657 ?x657)) ?x639 ?x240 ?x61) (- 3)))))
 (let (($x375 (= (+ (* 3 (* n n)) ?x639 ?x61) 0)))
 (let ((?x46 (* k k)))
 (let ((?x218 (* (- 1) ?x46)))
 (let ((?x41 (* 5 k)))
 (and $x138 (= (+ ?x37 (* 9 (* n c)) ?x41 ?x217 ?x218) 4) (= (+ ?x255 (* (- 1) (* n k)) k ?x257) 0) $x375 (or $x268 (not $x321) $x356 $x459 (not (= ?x443 13))))))))))))))))))))))))) :qid k!38))
 ))
 (let ((?x531 (lambda ((c Int) (k Int) (m Int) (n Int) )(let ((?x765 (+ (* 6 (* k k)) (* 6 (* c m n n n)) (* 6 (* c k n n n)) (* (- 1) (* k k m)) (* 18 (* k k n)) (* (- 2) (* k m m n)) (* 18 (* k m n n)) (* (- 1) (* k m m n n)) (* 18 (* c m n)) (* (- 2) (* c m m n)) (* (- 1) (* c m m n n)) (* (- 2) (* k k m n)) (* (- 1) (* k k m n n)) (* (- 1) (* k m m)) (* (- 1) (* c k m)) (* (- 2) (* c k m n)) (* 18 (* c k n n)) (* 18 (* c k n)) (* 18 (* c m n n)) (* 18 (* k m n)) (* 6 (* k m)) (* 6 (* c m)) (* 18 (* k k n n)) (* (- 1) (* c k m n n)) (* 6 (* c k)) (* (- 1) (* c m m)) (* 6 (* k k n n n)) (* 6 (* k m n n n)))))
 (let ((?x52 (* k n)))
 (let ((?x258 (* (- 1) ?x52)))
 (let ((?x257 (* (- 2) n)))
 (let ((?x255 (* 3 c)))
 (let (($x565 (= (+ ?x255 (* 3 k) ?x257 ?x258 (* (- 1) (* m n))) 2)))
 (let (($x573 (not $x565)))
 (let ((?x155 (* 9 (* c n))))
 (let ((?x46 (* k k)))
 (let ((?x218 (* (- 1) ?x46)))
 (let ((?x217 (* (- 9) n)))
 (let ((?x455 (* 5 m)))
 (let ((?x543 (+ (* 27 c) (* 32 k) ?x455 ?x217 ?x218 (* 9 ?x52) ?x155 (* (- 2) (* k m)) (* (- 1) (* m m)))))
 (let (($x547 (not (= ?x543 13))))
 (let (($x138 (= (+ m (* (- 6) n)) 6)))
 (let (($x356 (not $x138)))
 (let (($x785 (or $x356 (not (= (+ k m ?x217 (* (- 3) (* n n))) 6)) $x547 $x573 (not (= ?x765 0)))))
 (let (($x296 (= (+ k (* (- 3) n) (* (- 3) (* n n))) 0)))
 (let (($x260 (= (+ ?x255 k ?x257 ?x258) 0)))
 (let (($x215 (= (+ (* 18 c) (* 5 k) ?x217 ?x218 ?x155) 4)))
 (let (($x806 (and $x138 $x215 $x260 $x296 $x785)))
 (let ((?x37 (* 18 c)))
 (let ((?x443 (+ ?x37 (* 23 k) (* 9 (* (+ 1 n) (+ c k))) ?x455 ?x217 (* (- 1) (* (+ k m) (+ k m))))))
 (let ((?x71 (+ c k)))
 (let ((?x74 (+ k m)))
 (let ((?x657 (+ 1 n)))
 (let (($x459 (not (= (* ?x657 ?x657 ?x74 ?x71 (+ (- 6) m (* (- 6) n))) 0))))
 (let (($x321 (= (+ ?x255 (* 4 k) (* (- 1) (* ?x657 ?x74)) m ?x257) 2)))
 (let ((?x61 (* 3 n)))
 (let ((?x240 (* (- 1) m)))
 (let ((?x639 (* (- 1) k)))
 (let (($x268 (not (= (+ (* 3 (* ?x657 ?x657)) ?x639 ?x240 ?x61) (- 3)))))
 (let (($x375 (= (+ (* 3 (* n n)) ?x639 ?x61) 0)))
 (let (($x168 (= (+ ?x37 (* 9 (* n c)) (* 5 k) ?x217 ?x218) 4)))
 (let (($x434 (and $x138 $x168 (= (+ ?x255 (* (- 1) (* n k)) k ?x257) 0) $x375 (or $x268 (not $x321) $x356 $x459 (not (= ?x443 13))))))
 (rewrite (= $x434 $x806))))))))))))))))))))))))))))))))))))))
 ))
 (let (($x525 (exists ((c Int) (k Int) (m Int) (n Int) )(! (let ((?x56 (* 2 n)))
 (let ((?x240 (* (- 1) m)))
 (let ((?x74 (+ k m)))
 (let ((?x657 (+ 1 n)))
 (let ((?x403 (* ?x657 ?x74)))
 (let ((?x619 (* (- 3) c)))
 (let (($x424 (= (* ?x657 ?x657 ?x74 (+ c k) (+ (- 6) m (* (- 6) n))) 0)))
 (let (($x459 (not $x424)))
 (let (($x138 (= (+ m (* (- 6) n)) 6)))
 (let (($x356 (not $x138)))
 (let ((?x80 (* ?x74 ?x74)))
 (let ((?x45 (* 9 n)))
 (let ((?x479 (* (- 18) c)))
 (let ((?x311 (+ ?x479 (* (- 23) k) (* (- 9) (* ?x657 (+ c k))) (* (- 5) m) ?x45 ?x80)))
 (let (($x672 (= (+ (* 3 (* ?x657 ?x657)) (* (- 1) k) ?x240 (* 3 n)) (- 3))))
 (let (($x268 (not $x672)))
 (let (($x337 (or $x268 (not (= ?x311 (- 13))) $x356 $x459 (not (= (+ ?x619 (* (- 4) k) ?x403 ?x240 ?x56) (- 2))))))
 (let (($x375 (= (+ (* 3 (* n n)) (* (- 1) k) (* 3 n)) 0)))
 (let (($x605 (= (+ ?x479 (* (- 9) (* n c)) (* (- 5) k) ?x45 (* k k)) (- 4))))
 (and $x138 $x605 (= (+ ?x619 (* n k) (* (- 1) k) ?x56) 0) $x375 $x337)))))))))))))))))))) :qid k!38))
 ))
 (let ((?x431 (lambda ((c Int) (k Int) (m Int) (n Int) )(let ((?x217 (* (- 9) n)))
 (let ((?x455 (* 5 m)))
 (let ((?x37 (* 18 c)))
 (let ((?x443 (+ ?x37 (* 23 k) (* 9 (* (+ 1 n) (+ c k))) ?x455 ?x217 (* (- 1) (* (+ k m) (+ k m))))))
 (let ((?x71 (+ c k)))
 (let ((?x74 (+ k m)))
 (let ((?x657 (+ 1 n)))
 (let (($x459 (not (= (* ?x657 ?x657 ?x74 ?x71 (+ (- 6) m (* (- 6) n))) 0))))
 (let (($x138 (= (+ m (* (- 6) n)) 6)))
 (let (($x356 (not $x138)))
 (let ((?x257 (* (- 2) n)))
 (let ((?x255 (* 3 c)))
 (let (($x321 (= (+ ?x255 (* 4 k) (* (- 1) (* ?x657 ?x74)) m ?x257) 2)))
 (let ((?x61 (* 3 n)))
 (let ((?x240 (* (- 1) m)))
 (let ((?x639 (* (- 1) k)))
 (let (($x268 (not (= (+ (* 3 (* ?x657 ?x657)) ?x639 ?x240 ?x61) (- 3)))))
 (let (($x375 (= (+ (* 3 (* n n)) ?x639 ?x61) 0)))
 (let ((?x46 (* k k)))
 (let ((?x218 (* (- 1) ?x46)))
 (let ((?x41 (* 5 k)))
 (let (($x434 (and $x138 (= (+ ?x37 (* 9 (* n c)) ?x41 ?x217 ?x218) 4) (= (+ ?x255 (* (- 1) (* n k)) k ?x257) 0) $x375 (or $x268 (not $x321) $x356 $x459 (not (= ?x443 13))))))
 (let ((?x56 (* 2 n)))
 (let ((?x403 (* ?x657 ?x74)))
 (let ((?x619 (* (- 3) c)))
 (let ((?x80 (* ?x74 ?x74)))
 (let ((?x45 (* 9 n)))
 (let ((?x479 (* (- 18) c)))
 (let ((?x311 (+ ?x479 (* (- 23) k) (* (- 9) (* ?x657 ?x71)) (* (- 5) m) ?x45 ?x80)))
 (let (($x337 (or $x268 (not (= ?x311 (- 13))) $x356 $x459 (not (= (+ ?x619 (* (- 4) k) ?x403 ?x240 ?x56) (- 2))))))
 (let (($x605 (= (+ ?x479 (* (- 9) (* n c)) (* (- 5) k) ?x45 ?x46) (- 4))))
 (let (($x419 (and $x138 $x605 (= (+ ?x619 (* n k) ?x639 ?x56) 0) $x375 $x337)))
 (rewrite (= $x419 $x434)))))))))))))))))))))))))))))))))))
 ))
 (let (($x103 (exists ((c Int) (k Int) (m Int) (n Int) )(! (let ((?x68 (- (+ (- 6) m 6) (* 6 (+ n 1)))))
 (let ((?x66 (+ n 1)))
 (let ((?x74 (+ k m)))
 (let ((?x71 (+ c k)))
 (let ((?x50 (- 3)))
 (let (($x90 (= (+ (- (+ (* ?x50 ?x71) (* ?x74 ?x66)) ?x74) (* 2 ?x66)) 0)))
 (let ((?x80 (* ?x74 ?x74)))
 (let ((?x78 (- (- (- 4 (* 18 ?x71)) (* 9 ?x71 ?x66)) (* 5 ?x74))))
 (let (($x101 (or (not (= ?x68 0)) (not (= (+ ?x78 (* 9 ?x66) ?x80) 0)) (not $x90) (not (= (+ (- (* 3 ?x66 ?x66) ?x74) (* 3 ?x66)) 0)) (not (= (* ?x50 ?x71 ?x74 ?x66 ?x66 ?x68) 0)))))
 (let (($x58 (= (+ (- (+ (* ?x50 c) (* k n)) k) (* 2 n)) 0)))
 (let ((?x46 (* k k)))
 (let ((?x45 (* 9 n)))
 (let ((?x41 (* 5 k)))
 (let ((?x47 (+ (- (- (- 4 (* 18 c)) (* 9 c n)) ?x41) ?x45 ?x46)))
 (and (= (- (+ (- 6) m) (* 6 n)) 0) (= ?x47 0) $x58 (= (+ (- (* 3 n n) k) (* 3 n)) 0) $x101))))))))))))))) :qid k!38))
 ))
 (let ((?x461 (lambda ((c Int) (k Int) (m Int) (n Int) )(let ((?x56 (* 2 n)))
 (let ((?x240 (* (- 1) m)))
 (let ((?x74 (+ k m)))
 (let ((?x657 (+ 1 n)))
 (let ((?x403 (* ?x657 ?x74)))
 (let ((?x619 (* (- 3) c)))
 (let (($x424 (= (* ?x657 ?x657 ?x74 (+ c k) (+ (- 6) m (* (- 6) n))) 0)))
 (let (($x459 (not $x424)))
 (let (($x138 (= (+ m (* (- 6) n)) 6)))
 (let (($x356 (not $x138)))
 (let ((?x80 (* ?x74 ?x74)))
 (let ((?x45 (* 9 n)))
 (let ((?x479 (* (- 18) c)))
 (let ((?x311 (+ ?x479 (* (- 23) k) (* (- 9) (* ?x657 (+ c k))) (* (- 5) m) ?x45 ?x80)))
 (let (($x672 (= (+ (* 3 (* ?x657 ?x657)) (* (- 1) k) ?x240 (* 3 n)) (- 3))))
 (let (($x268 (not $x672)))
 (let (($x337 (or $x268 (not (= ?x311 (- 13))) $x356 $x459 (not (= (+ ?x619 (* (- 4) k) ?x403 ?x240 ?x56) (- 2))))))
 (let (($x375 (= (+ (* 3 (* n n)) (* (- 1) k) (* 3 n)) 0)))
 (let (($x605 (= (+ ?x479 (* (- 9) (* n c)) (* (- 5) k) ?x45 (* k k)) (- 4))))
 (let (($x419 (and $x138 $x605 (= (+ ?x619 (* n k) (* (- 1) k) ?x56) 0) $x375 $x337)))
 (let ((?x68 (- (+ (- 6) m 6) (* 6 (+ n 1)))))
 (let ((?x66 (+ n 1)))
 (let ((?x71 (+ c k)))
 (let ((?x50 (- 3)))
 (let (($x90 (= (+ (- (+ (* ?x50 ?x71) (* ?x74 ?x66)) ?x74) (* 2 ?x66)) 0)))
 (let ((?x78 (- (- (- 4 (* 18 ?x71)) (* 9 ?x71 ?x66)) (* 5 ?x74))))
 (let (($x101 (or (not (= ?x68 0)) (not (= (+ ?x78 (* 9 ?x66) ?x80) 0)) (not $x90) (not (= (+ (- (* 3 ?x66 ?x66) ?x74) (* 3 ?x66)) 0)) (not (= (* ?x50 ?x71 ?x74 ?x66 ?x66 ?x68) 0)))))
 (let ((?x46 (* k k)))
 (let ((?x41 (* 5 k)))
 (let ((?x47 (+ (- (- (- 4 (* 18 c)) (* 9 c n)) ?x41) ?x45 ?x46)))
 (let (($x102 (and (= (- (+ (- 6) m) (* 6 n)) 0) (= ?x47 0) (= (+ (- (+ (* ?x50 c) (* k n)) k) ?x56) 0) (= (+ (- (* 3 n n) k) (* 3 n)) 0) $x101)))
 (rewrite (= $x102 $x419))))))))))))))))))))))))))))))))))
 ))
 (let ((@x104 (asserted $x103)))
 (let ((@x494 (mp (mp @x104 (quant-intro (proof-bind ?x461) (= $x103 $x525)) $x525) (rewrite (= $x525 $x525)) $x525)))
 (let ((@x122 (mp (mp @x494 (quant-intro (proof-bind ?x431) (= $x525 $x302)) $x302) (quant-intro (proof-bind ?x531) (= $x302 $x406)) $x406)))
 (let ((@x332 (mp (mp~ @x122 (sk (~ $x406 $x509)) $x509) (rewrite (= $x509 $x230)) $x230)))
 (let ((@x300 (and-elim @x332 $x467)))
 (let ((@x144 (unit-resolution ((_ th-lemma arith triangle-eq) (or (not $x467) $x617)) @x300 $x617)))
 (let (($x659 (>= ?x239 0)))
 (let ((@x172 (unit-resolution ((_ th-lemma arith triangle-eq) (or (not $x467) $x659)) @x300 $x659)))
 (let (($x463 (<= ?x488 (- 4))))
 (let ((@x273 (and-elim @x332 $x233)))
 (let ((@x263 (unit-resolution ((_ th-lemma arith triangle-eq) (or (not $x233) $x463)) @x273 $x463)))
 (let (($x559 (>= ?x488 (- 4))))
 (let ((@x113 (unit-resolution ((_ th-lemma arith triangle-eq) (or (not $x233) $x559)) @x273 $x559)))
 (let (($x481 (<= ?x524 (- 6))))
 (let ((@x351 (and-elim @x332 $x393)))
 (let ((@x173 (unit-resolution ((_ th-lemma arith triangle-eq) (or $x549 $x481)) @x351 $x481)))
 (let (($x562 (>= ?x524 (- 6))))
 (let ((@x446 (unit-resolution ((_ th-lemma arith triangle-eq) (or $x549 $x562)) @x351 $x562)))
 (let (($x561 (<= ?x148 0)))
 (let ((@x276 (and-elim @x332 $x482)))
 (let ((@x611 (unit-resolution ((_ th-lemma arith triangle-eq) (or (not $x482) $x561)) @x276 $x561)))
 (let (($x583 (>= ?x148 0)))
 (let ((@x581 (unit-resolution ((_ th-lemma arith triangle-eq) (or (not $x482) $x583)) @x276 $x583)))
 (let ((?x947 (+ (* 5 n!0) ?x452)))
 (let (($x1643 (>= ?x947 (- 4))))
 (let (($x1543 (>= ?x947 (- 5))))
 (let (($x222 (<= n!0 0)))
 (let (($x1123 (<= n!0 1)))
 (let (($x1078 (<= m!1 13)))
 (let (($x922 (<= m!1 12)))
 (let (($x1093 (not $x1123)))
 (let (($x802 (not $x922)))
 (let ((@x919 (hypothesis $x802)))
 (let ((@x1164 (unit-resolution (lemma ((_ th-lemma arith farkas 1 -6 1) @x446 (hypothesis $x1123) @x919 false) (or $x1093 $x922)) @x919 $x1093)))
 (let (($x1027 (<= k!2 19)))
 (let (($x1104 (not $x1027)))
 (let (($x958 (<= k!2 18)))
 (let (($x900 (not $x958)))
 (let ((@x939 (hypothesis $x958)))
 (let ((@x920 ((_ th-lemma arith gcd-test -1/9 -1/9 -1/9 -1/9 -1/9 -1/9 -1/9 -1/9 -1/9 -1/9 -1/9 -1/9 -1/9 -1/9 -1/9 -1/9 1/9 1/9 1/9 1/9 2/3 2/3 2/3 2/3 2/3 2/3 2/3 2/3 -2/3 -2/3) @x144 @x919 @x446 @x939 @x144 @x919 @x446 @x939 @x144 @x919 @x446 @x939 @x144 @x919 @x446 @x939 @x113 @x263 @x172 @x144 @x144 @x919 @x446 @x939 @x144 @x919 @x446 @x939 @x581 @x611 false)))
 (let ((@x1069 (hypothesis $x1027)))
 (let ((@x1043 (hypothesis $x900)))
 (let ((@x1114 (lemma ((_ th-lemma arith gcd-test -19/21 -19/21 -2/21 -2/21 -2/21 -2/21 -19/21 -19/21) @x581 @x611 @x1043 @x1069 @x1043 @x1069 @x1043 @x1069 false) (or $x1104 $x958))))
 (let ((@x1087 (unit-resolution @x1114 (unit-resolution (lemma @x920 (or $x900 $x922)) @x919 $x900) $x1104)))
 (let (($x1026 (<= n!0 2)))
 (let (($x1154 (<= n!0 3)))
 (let (($x1028 (<= m!1 30)))
 (let (($x1244 (>= n!0 5)))
 (let (($x1246 (not $x1244)))
 (let (($x1323 (<= n!0 5)))
 (let (($x1262 (<= n!0 6)))
 (let ((@x1368 ((_ th-lemma arith) (hypothesis (not $x1262)) @x113 @x263 @x172 @x144 @x581 @x611 @x113 @x263 @x113 @x263 @x172 @x144 @x581 @x611 @x113 @x263 false)))
 (let (($x1321 (not $x1323)))
 (let ((@x1270 (hypothesis $x1321)))
 (let ((@x1290 (hypothesis $x1262)))
 (let ((@x1312 (lemma ((_ th-lemma arith farkas 1 -24 -125 822 33 1 1 1 1 1) @x113 @x611 @x144 @x1270 @x1290 @x1270 @x144 @x1290 @x172 @x1270 false) (or (not $x1262) $x1323))))
 (let ((@x1287 (hypothesis $x1323)))
 (let ((@x1305 (hypothesis $x1244)))
 (let ((@x1269 ((_ th-lemma arith gcd-test -2 -2 -2 -2 -1 -1 67/3 67/3 -70 -70 -70 -70 -70 -230/3 -230/3 10/3 10/3 -16/3 -16/3 -16/3 -16/3) @x1305 @x1287 @x1305 @x1287 @x113 @x263 @x172 @x144 @x1305 @x1305 @x1287 @x1305 @x1287 @x1305 @x1287 @x581 @x611 @x1305 @x1287 @x1305 @x1287 false)))
 (let ((@x1159 (unit-resolution (lemma @x1269 (or $x1321 $x1246)) (unit-resolution @x1312 (lemma @x1368 $x1262) $x1323) $x1246)))
 (let ((@x1033 (lemma ((_ th-lemma arith farkas -6 1 1) (hypothesis $x1246) @x446 (hypothesis (not $x1028)) false) (or $x1244 $x1028))))
 (let ((@x1037 (hypothesis $x1028)))
 (let (($x1191 (not $x1154)))
 (let ((@x1141 (hypothesis $x1191)))
 (let ((@x1197 ((_ th-lemma arith gomory-cut 1/2 5/6 -5/6 5 1 1 1) @x581 @x446 @x173 @x1141 @x1141 @x173 @x1037 (>= (+ (* 4 n!0) ?x126 (* (- 1) c!3) ?x277) 14))))
 (let ((@x1236 (lemma ((_ th-lemma arith farkas -5/9 -5/9 -2/3 -2/3 -2/3 -1/3 1) @x173 @x1037 @x1141 @x173 @x1037 @x611 @x1197 false) (or (not $x1028) $x1154))))
 (let ((@x1169 (hypothesis $x1154)))
 (let (($x1166 (not $x1026)))
 (let ((@x1148 (hypothesis $x1166)))
 (let ((@x1173 (lemma ((_ th-lemma arith farkas -15 -35 255 1 24 1 1 1 1 1) @x611 @x144 @x1148 @x113 @x1169 @x144 @x1148 @x172 @x1148 @x1169 false) (or $x1191 $x1026))))
 (let ((@x1145 (unit-resolution @x1173 (unit-resolution @x1236 (unit-resolution @x1033 @x1159 $x1028) $x1154) $x1026)))
 (let ((@x1131 (hypothesis $x1026)))
 (let ((@x1010 (hypothesis $x1093)))
 (let ((@x1180 (lemma ((_ th-lemma arith farkas -1/3 -1/3 1 1 1 1 1) (hypothesis $x1104) @x172 @x1131 @x1010 @x1131 @x1010 @x1131 false) (or $x1166 $x1027 $x1123))))
 (let ((@x1175 (unit-resolution (unit-resolution @x1180 @x1145 (or $x1027 $x1123)) @x1087 @x1164 false)))
 (let ((@x1533 (unit-resolution ((_ th-lemma arith assign-bounds 1 6) (or (not $x1078) (not $x481) $x1123)) @x173 (or (not $x1078) $x1123))))
 (let ((@x1551 (unit-resolution @x1533 (unit-resolution ((_ th-lemma arith farkas 1 1) (or $x1078 $x802)) (lemma @x1175 $x922) $x1078) $x1123)))
 (let ((@x474 (hypothesis (not $x222))))
 (let ((@x1468 ((_ th-lemma arith gcd-test -1 -1 -1 -1 1/3 1/3 -2/3 -2/3 -1/3 -1/3 -1/3 -1/3) @x474 @x1551 @x474 @x1551 @x581 @x611 @x474 @x1551 @x474 @x1551 @x474 @x1551 false)))
 (let (($x327 (>= ?x734 1)))
 (let ((@x695 ((_ th-lemma arith) (hypothesis (not $x327)) @x581 @x611 @x172 @x144 @x581 @x611 @x172 @x144 @x172 @x144 @x446 @x173 @x581 @x611 @x172 @x144 @x113 @x263 @x581 @x611 false)))
 (let ((@x251 (lemma @x695 $x327)))
 (let (($x523 (>= ?x297 (- 2))))
 (let ((@x1241 ((_ th-lemma arith) (hypothesis (not $x523)) @x172 @x144 @x581 @x611 @x172 @x144 @x446 @x173 false)))
 (let ((@x1525 ((_ th-lemma arith farkas 2 1 1 6 1 1 1) @x144 @x611 (lemma @x1241 $x523) @x251 (hypothesis (>= m!1 6)) @x446 (lemma @x1468 $x222) false)))
 (let ((@x1603 ((_ th-lemma arith farkas -5 6 1) @x446 (hypothesis (not $x1543)) (lemma @x1525 (not (>= m!1 6))) false)))
 (let ((@x1647 ((_ th-lemma arith farkas 1 -1 1) (lemma @x1603 $x1543) @x173 (hypothesis (>= n!0 0)) false)))
 (let ((@x1656 (lemma @x1647 (not (>= n!0 0)))))
 (let (($x1364 (>= m!1 0)))
 (let ((@x1621 (hypothesis $x1364)))
 (let (($x235 (>= ?x783 0)))
 (let ((@x589 (lemma ((_ th-lemma arith farkas 1) (hypothesis (not $x235)) false) $x235)))
 (let ((@x1608 ((_ th-lemma arith farkas 3 3 3 -1/3 -2/3 1/3 -1 2 2 2 1 1 1 1 1 1) @x446 @x1621 @x1656 @x589 @x172 @x263 @x581 @x1656 @x446 @x1621 @x1656 @x251 @x144 @x446 @x1621 @x1656 false)))
 (let ((@x1606 ((_ th-lemma arith farkas -5 6 1) @x446 (hypothesis (not $x1643)) (lemma @x1608 (not $x1364)) false)))
 (let ((@x1690 (lemma @x1606 $x1643)))
 (let (($x1184 (>= c!3 0)))
 (let (($x1746 (>= (+ (* 10 n!0) (* (- 15) c!3) (* (- 7) ?x376) ?x116 ?x313 ?x783) 2)))
 (let (($x1706 (>= n!0 (- 2))))
 (let ((@x1711 (hypothesis $x1706)))
 (let ((?x1263 (* (- 7) ?x376)))
 (let ((?x1267 (+ (* 12 n!0) (* 2 ?x126) ?x496 ?x1263 (* (- 6) k!2) ?x313 ?x783)))
 (let (($x692 (>= ?x1267 1)))
 (let (($x1483 (not $x692)))
 (let (($x1482 (>= ?x1267 0)))
 (let ((@x1609 ((_ th-lemma arith) (hypothesis $x1643) (unit-resolution ((_ th-lemma arith farkas 1 1) (or $x1482 $x1483)) (hypothesis $x692) $x1482) @x446 @x173 @x172 @x144 @x446 @x173 @x113 @x263 @x581 @x611 @x113 @x263 @x172 @x144 @x581 @x611 @x172 @x144 @x113 @x263 @x446 @x173 @x172 @x144 @x581 @x611 false)))
 (let ((@x1702 ((_ th-lemma arith farkas 3/2 4 4 3/2 3/2 3 3 3 2 1 1 1) @x172 @x173 @x1690 @x113 (unit-resolution (lemma @x1609 (or (not $x1643) $x1483)) @x1690 $x1483) @x1711 @x173 @x1690 @x581 @x1711 @x173 @x1690 false)))
 (let ((@x1689 (lemma @x1702 (not $x1706))))
 (let ((@x1620 ((_ th-lemma arith) @x1689 (hypothesis $x1746) @x581 @x611 @x581 @x611 @x113 @x263 @x581 @x611 @x172 @x144 @x113 @x263 @x172 @x144 @x172 @x144 @x581 @x611 @x113 @x263 @x172 @x144 @x446 @x173 @x113 @x263 @x581 @x611 @x113 @x263 @x172 @x144 @x581 @x611 @x172 @x144 @x113 @x263 false)))
 (let ((@x1250 ((_ th-lemma arith farkas 5 5 3 3 3 6 1) @x113 @x172 @x1689 @x1689 (hypothesis (not $x1184)) (lemma @x1620 (not $x1746)) @x589 false)))
 ((_ th-lemma arith) (lemma @x1250 $x1184) @x1690 @x446 @x173 @x172 @x144 @x446 @x173 @x446 @x173 @x581 @x611 @x172 @x144 @x446 @x173 @x446 @x173 @x113 @x263 @x172 @x144 @x113 @x263 @x172 @x144 false))))))))))))))))))))))))))))))))))))))))))))))))))))))))))))))))))))))))))))))))))))))))))))))))))))))))))))))))))))))))))))))))))))))))))))))))))))))))))))))))))))))

(:added-eqs                 147
 :arith-assert-diseq        29
 :arith-assert-lower        1603
 :arith-assert-upper        663
 :arith-bound-prop          3
 :arith-branch-var          40
 :arith-conflicts           59
 :arith-eq-adapter          16
 :arith-fixed-eqs           248
 :arith-gcd-tests           355
 :arith-gomory-cuts         28
 :arith-grobner             76
 :arith-ineq-splits         40
 :arith-max-min             10506
 :arith-nonlinear-bounds    988
 :arith-nonlinear-horner    639
 :arith-num-rows            27
 :arith-offset-eqs          8
 :arith-patches             104
 :arith-patches_succ        25
 :arith-pivots              2106
 :arith-pseudo-nonlinear    282
 :arith-row-summations      6634
 :arith-tableau-max-columns 88
 :arith-tableau-max-rows    27
 :conflicts                 69
 :decisions                 328
 :del-clause                120
 :final-checks              256
 :max-memory                4.18
 :memory                    3.32
 :minimized-lits            5
 :mk-bool-var               295
 :mk-clause                 211
 :num-allocs                7170778
 :num-checks                1
 :propagations              431
 :rlimit-count              533128
 :time                      0.16
 :total-time                0.17)
